p wcnf 120 1400
6 -115 117 0
7 -113 -117 0
9 -113 -114 0
5 -112 118 0
3 -109 110 0
8 -109 117 0
1 -107 -110 0
10 -106 117 0
8 -105 114 0
2 -104 -112 0
2 -104 -108 0
10 -103 110 0
8 -103 117 0
4 -102 -119 0
4 -102 117 0
5 -100 112 0
9 -98 -115 0
4 -98 -100 0
4 -98 104 0
3 -98 110 0
6 -98 117 0
4 -97 -114 0
7 -97 109 0
5 -97 111 0
3 -96 -113 0
6 -96 -100 0
9 -96 97 0
2 -95 -100 0
9 -94 98 0
3 -94 110 0
2 -93 107 0
5 -93 114 0
10 -93 119 0
1 -92 96 0
9 -92 107 0
2 -91 119 0
9 -90 109 0
9 -88 -106 0
2 -88 96 0
7 -88 98 0
2 -87 -119 0
3 -87 -96 0
6 -87 120 0
9 -86 -116 0
6 -86 -108 0
10 -86 114 0
4 -86 120 0
5 -85 107 0
3 -85 109 0
6 -84 -101 0
7 -84 100 0
8 -83 -113 0
10 -83 -112 0
4 -83 -107 0
3 -83 -91 0
3 -82 -108 0
9 -81 -109 0
2 -81 -88 0
4 -81 -82 0
8 -81 113 0
5 -80 -101 0
5 -80 94 0
2 -79 118 0
5 -78 -119 0
6 -78 -109 0
1 -78 -106 0
6 -77 -99 0
4 -77 -95 0
9 -77 116 0
7 -76 -118 0
1 -76 87 0
10 -76 96 0
9 -76 111 0
6 -75 -114 0
8 -75 -113 0
5 -75 -101 0
6 -75 -86 0
2 -75 100 0
9 -74 -107 0
8 -74 77 0
8 -74 80 0
6 -74 98 0
6 -74 111 0
8 -73 -94 0
8 -73 -92 0
9 -73 -87 0
9 -73 -78 0
7 -73 -76 0
1 -73 78 0
3 -72 85 0
5 -72 86 0
5 -71 -107 0
7 -71 -79 0
6 -71 -78 0
9 -71 -73 0
3 -71 104 0
7 -71 120 0
5 -70 -115 0
6 -70 -111 0
6 -70 -90 0
2 -70 -84 0
6 -70 -79 0
6 -70 111 0
1 -69 -117 0
2 -69 -112 0
4 -69 -107 0
5 -69 81 0
7 -69 84 0
5 -69 92 0
4 -69 112 0
5 -68 -94 0
3 -68 -82 0
8 -68 73 0
1 -67 -119 0
10 -67 -118 0
7 -67 -93 0
9 -67 -91 0
9 -67 90 0
4 -67 97 0
9 -67 111 0
2 -66 -119 0
8 -66 -103 0
4 -66 72 0
8 -66 92 0
5 -66 106 0
3 -65 -107 0
10 -65 78 0
1 -65 92 0
7 -64 -105 0
6 -64 -103 0
6 -64 -79 0
8 -64 67 0
2 -63 -109 0
2 -63 -103 0
9 -63 -80 0
3 -63 -78 0
5 -63 64 0
4 -63 111 0
9 -62 -109 0
10 -62 -99 0
7 -62 -83 0
4 -62 64 0
3 -62 85 0
5 -61 -107 0
5 -61 -93 0
2 -61 79 0
2 -61 80 0
4 -61 120 0
1 -60 -114 0
6 -60 85 0
3 -60 89 0
2 -60 108 0
4 -60 110 0
7 -59 -103 0
9 -59 -87 0
8 -59 79 0
9 -59 85 0
9 -59 90 0
8 -59 116 0
6 -58 -104 0
4 -58 -103 0
5 -58 -96 0
5 -58 -82 0
5 -58 -75 0
5 -58 -74 0
3 -58 -69 0
7 -58 -67 0
10 -58 74 0
6 -58 84 0
6 -58 85 0
9 -57 -118 0
3 -57 -117 0
10 -57 -113 0
2 -57 -108 0
7 -57 64 0
5 -57 116 0
3 -56 -81 0
8 -56 -80 0
8 -56 -60 0
3 -56 -59 0
4 -56 62 0
10 -56 102 0
4 -56 114 0
7 -56 118 0
7 -55 -93 0
3 -55 -70 0
5 -55 -63 0
6 -55 71 0
1 -54 -111 0
3 -54 -75 0
2 -54 -55 0
5 -54 79 0
7 -54 84 0
6 -54 93 0
9 -54 97 0
2 -54 117 0
8 -53 -120 0
6 -53 -99 0
2 -53 -95 0
4 -53 -87 0
3 -53 -82 0
10 -53 -74 0
6 -53 -57 0
2 -53 66 0
1 -53 72 0
3 -53 78 0
6 -53 102 0
3 -53 108 0
2 -52 -82 0
4 -52 78 0
5 -52 93 0
4 -51 -108 0
3 -51 -101 0
8 -51 -95 0
1 -51 -87 0
9 -51 -73 0
10 -51 -68 0
5 -51 -67 0
5 -51 -66 0
1 -51 -53 0
8 -51 60 0
6 -51 61 0
5 -51 63 0
4 -51 81 0
2 -51 85 0
4 -50 -112 0
6 -50 -110 0
9 -50 -98 0
9 -50 -96 0
6 -50 -78 0
3 -50 -74 0
1 -50 -62 0
6 -49 -120 0
8 -49 -97 0
3 -49 -79 0
7 -49 73 0
1 -49 78 0
8 -48 -80 0
9 -48 -75 0
2 -48 -69 0
1 -48 -68 0
4 -48 -52 0
5 -48 -49 0
4 -48 79 0
2 -48 98 0
5 -47 -119 0
3 -47 -114 0
2 -47 -95 0
10 -47 -81 0
7 -47 -57 0
2 -47 63 0
7 -47 112 0
3 -46 -103 0
6 -46 -93 0
2 -46 -84 0
3 -46 -64 0
9 -46 51 0
6 -46 96 0
2 -46 110 0
7 -45 -72 0
3 -45 50 0
3 -45 65 0
8 -45 72 0
8 -45 86 0
1 -44 -119 0
10 -44 -115 0
5 -44 -108 0
1 -44 -95 0
8 -44 -86 0
4 -44 -85 0
2 -44 -66 0
8 -44 53 0
7 -44 66 0
6 -44 109 0
2 -43 -117 0
9 -43 -111 0
1 -43 -96 0
4 -43 -94 0
10 -43 -45 0
10 -43 56 0
9 -43 73 0
2 -43 94 0
7 -43 111 0
2 -42 -110 0
7 -42 -90 0
8 -42 -84 0
4 -42 -78 0
5 -42 -58 0
4 -42 -45 0
5 -42 67 0
3 -42 72 0
6 -42 99 0
7 -42 108 0
10 -42 109 0
4 -41 -107 0
8 -41 42 0
10 -41 92 0
8 -41 106 0
8 -41 118 0
7 -40 -67 0
1 -40 -66 0
9 -39 -115 0
5 -39 -105 0
8 -39 -102 0
5 -39 -97 0
6 -39 -78 0
6 -39 -77 0
5 -39 -63 0
9 -39 -58 0
6 -39 -47 0
5 -39 47 0
9 -39 53 0
7 -39 80 0
2 -39 89 0
10 -38 -117 0
4 -38 -112 0
9 -38 -86 0
4 -38 -71 0
8 -38 -55 0
4 -38 -43 0
8 -38 -39 0
1 -38 76 0
9 -38 80 0
5 -38 84 0
10 -38 115 0
3 -37 -92 0
3 -37 -81 0
10 -37 -65 0
10 -37 -54 0
1 -37 38 0
7 -37 52 0
1 -37 76 0
9 -37 82 0
2 -37 94 0
8 -37 95 0
4 -37 99 0
8 -36 -117 0
4 -36 -116 0
7 -36 -111 0
7 -36 -100 0
8 -36 -89 0
2 -36 -83 0
5 -36 -81 0
5 -36 -77 0
3 -36 -66 0
5 -36 39 0
8 -36 57 0
2 -36 75 0
8 -36 83 0
6 -35 -110 0
5 -35 -94 0
6 -35 117 0
6 -35 119 0
3 -34 -67 0
10 -34 -63 0
6 -34 -56 0
5 -34 43 0
3 -34 67 0
6 -34 101 0
5 -33 -119 0
3 -33 -107 0
2 -33 -104 0
5 -33 -93 0
2 -33 -53 0
4 -33 38 0
3 -33 40 0
5 -33 62 0
1 -33 69 0
5 -33 91 0
2 -33 108 0
7 -33 117 0
4 -33 119 0
3 -32 -116 0
2 -32 -107 0
8 -32 -95 0
5 -32 -63 0
6 -32 -52 0
6 -32 -35 0
6 -32 58 0
4 -31 -108 0
2 -31 -95 0
10 -31 -87 0
8 -31 -44 0
7 -31 -34 0
3 -31 48 0
8 -31 51 0
3 -31 76 0
8 -31 114 0
1 -30 -117 0
8 -30 -88 0
3 -30 -67 0
3 -30 -55 0
9 -30 33 0
7 -30 61 0
4 -30 95 0
3 -29 -111 0
8 -29 -94 0
8 -29 -78 0
4 -29 -66 0
4 -29 -63 0
9 -29 -50 0
10 -29 -35 0
7 -29 -30 0
2 -29 33 0
2 -29 94 0
5 -29 96 0
6 -29 120 0
6 -28 -97 0
1 -28 -81 0
2 -28 -51 0
9 -28 -31 0
2 -28 37 0
2 -28 46 0
7 -28 55 0
8 -28 56 0
5 -28 64 0
5 -28 97 0
2 -27 -117 0
2 -27 -103 0
6 -27 -98 0
9 -27 -82 0
4 -27 -73 0
8 -27 -66 0
8 -27 -48 0
9 -27 32 0
2 -27 41 0
1 -27 43 0
8 -27 55 0
9 -27 58 0
4 -27 59 0
2 -27 93 0
8 -27 102 0
3 -27 105 0
7 -27 109 0
8 -26 -109 0
4 -26 -94 0
2 -26 -72 0
4 -26 -66 0
9 -26 -28 0
2 -26 29 0
5 -26 37 0
9 -26 47 0
4 -26 53 0
7 -26 59 0
6 -26 72 0
2 -26 82 0
1 -26 83 0
1 -26 94 0
3 -25 -79 0
2 -25 -40 0
6 -25 -27 0
2 -25 40 0
5 -25 41 0
3 -25 47 0
9 -25 73 0
4 -25 107 0
4 -25 113 0
9 -24 -87 0
2 -24 -68 0
3 -24 -66 0
3 -24 106 0
3 -24 110 0
10 -24 115 0
5 -23 -91 0
9 -23 -81 0
8 -23 -68 0
8 -23 27 0
2 -23 58 0
2 -23 61 0
8 -23 62 0
3 -23 99 0
7 -22 -116 0
6 -22 -105 0
6 -22 -91 0
4 -22 -70 0
2 -22 -57 0
7 -22 -23 0
4 -22 38 0
2 -22 59 0
9 -21 -117 0
5 -21 -105 0
7 -21 -103 0
9 -21 -82 0
9 -21 -77 0
9 -21 -72 0
8 -21 -69 0
3 -21 -62 0
4 -21 -53 0
7 -21 25 0
5 -21 57 0
6 -21 73 0
9 -21 92 0
7 -20 -113 0
6 -20 -105 0
4 -20 -86 0
6 -20 -57 0
4 -20 -51 0
2 -20 -42 0
7 -20 34 0
5 -20 44 0
9 -20 53 0
9 -20 67 0
2 -20 71 0
5 -20 95 0
5 -19 -116 0
5 -19 -107 0
6 -19 -96 0
2 -19 -94 0
7 -19 -90 0
7 -19 -65 0
9 -19 -30 0
2 -19 52 0
4 -19 70 0
9 -19 82 0
1 -19 83 0
3 -19 114 0
6 -18 -114 0
4 -18 -88 0
6 -18 20 0
3 -18 45 0
8 -18 87 0
2 -18 88 0
2 -18 109 0
4 -18 118 0
7 -18 119 0
5 -18 120 0
10 -17 -117 0
1 -17 -81 0
5 -17 -80 0
6 -17 -76 0
6 -17 -63 0
4 -17 23 0
6 -17 58 0
7 -17 68 0
8 -17 75 0
10 -17 80 0
1 -17 94 0
4 -16 -93 0
1 -16 -83 0
8 -16 -74 0
10 -16 -61 0
10 -16 -59 0
9 -16 -38 0
4 -16 30 0
9 -16 48 0
9 -16 58 0
6 -16 81 0
5 -16 85 0
3 -16 118 0
3 -16 120 0
7 -15 -94 0
10 -15 -87 0
4 -15 21 0
8 -15 35 0
4 -15 47 0
2 -15 56 0
3 -15 103 0
4 -14 -114 0
2 -14 -111 0
7 -14 -110 0
9 -14 -83 0
6 -14 -61 0
1 -14 -56 0
5 -14 -42 0
3 -14 35 0
8 -14 40 0
4 -14 56 0
3 -14 108 0
2 -14 113 0
5 -13 -119 0
1 -13 -107 0
2 -13 -95 0
5 -13 -86 0
9 -13 -72 0
5 -13 48 0
3 -13 64 0
8 -13 81 0
1 -13 96 0
8 -13 105 0
1 -12 -108 0
3 -12 -92 0
5 -12 -56 0
1 -12 -50 0
7 -12 -45 0
3 -12 -40 0
4 -12 26 0
7 -12 49 0
4 -12 81 0
7 -12 107 0
8 -12 117 0
1 -12 120 0
6 -11 -112 0
4 -11 -61 0
1 -11 -58 0
10 -11 -54 0
7 -11 19 0
9 -11 31 0
4 -11 45 0
9 -11 46 0
9 -11 51 0
8 -11 52 0
9 -11 79 0
1 -11 86 0
3 -11 91 0
8 -11 98 0
5 -11 103 0
6 -11 109 0
6 -11 111 0
6 -11 112 0
3 -11 118 0
7 -10 -106 0
8 -10 -91 0
7 -10 -79 0
7 -10 -35 0
5 -10 -27 0
9 -10 -26 0
1 -10 -24 0
2 -10 50 0
3 -10 64 0
7 -10 113 0
9 -9 -120 0
4 -9 -82 0
3 -9 -59 0
3 -9 34 0
4 -9 55 0
3 -9 66 0
9 -9 73 0
3 -9 75 0
6 -9 76 0
8 -9 81 0
2 -9 90 0
5 -9 93 0
7 -9 102 0
2 -9 108 0
7 -9 116 0
5 -9 117 0
7 -8 -105 0
2 -8 -90 0
2 -8 12 0
3 -8 16 0
4 -8 21 0
8 -8 53 0
10 -8 65 0
1 -8 74 0
5 -8 87 0
5 -8 101 0
9 -7 -109 0
5 -7 -98 0
5 -7 -91 0
2 -7 -79 0
2 -7 -64 0
4 -7 -26 0
5 -7 21 0
4 -7 80 0
7 -7 97 0
8 -7 101 0
6 -7 111 0
6 -6 -115 0
9 -6 -99 0
3 -6 -93 0
4 -6 -88 0
1 -6 -59 0
6 -6 -55 0
1 -6 -53 0
3 -6 -15 0
3 -6 -12 0
6 -6 39 0
9 -6 50 0
4 -6 62 0
6 -6 102 0
1 -6 117 0
8 -5 -95 0
4 -5 -79 0
1 -5 -65 0
8 -5 -52 0
8 -5 -51 0
5 -5 59 0
7 -5 61 0
3 -5 69 0
9 -5 80 0
8 -5 88 0
3 -5 104 0
4 -5 106 0
3 -5 107 0
7 -4 -56 0
9 -4 -22 0
1 -4 -19 0
3 -4 27 0
5 -4 28 0
10 -4 70 0
4 -4 110 0
8 -4 120 0
10 -3 -96 0
10 -3 -66 0
8 -3 -62 0
3 -3 -40 0
3 -3 -31 0
4 -3 -24 0
2 -3 9 0
6 -3 65 0
9 -3 74 0
2 -3 88 0
3 -2 -117 0
3 -2 -93 0
2 -2 -91 0
1 -2 -84 0
10 -2 -66 0
6 -2 -61 0
7 -2 -53 0
2 -2 -4 0
5 -2 5 0
6 -2 87 0
5 -2 96 0
8 -1 -75 0
8 -1 -59 0
1 -1 -20 0
7 -1 34 0
8 -1 56 0
3 -1 67 0
3 -1 77 0
8 -1 101 0
7 -1 106 0
9 1 -88 0
8 1 -85 0
6 1 -82 0
8 1 -68 0
10 1 -66 0
8 1 -54 0
1 1 -34 0
1 1 -22 0
4 1 9 0
9 1 18 0
2 1 41 0
6 1 51 0
2 1 59 0
3 1 60 0
6 1 84 0
2 1 88 0
9 1 109 0
4 1 111 0
3 2 -119 0
4 2 -65 0
9 2 -22 0
6 2 -6 0
2 2 13 0
7 2 24 0
7 2 44 0
9 2 50 0
5 2 83 0
9 2 94 0
1 2 99 0
3 3 -86 0
5 3 -78 0
10 3 -77 0
9 3 -68 0
2 3 -58 0
7 3 -56 0
9 3 -23 0
8 3 -8 0
7 3 -5 0
9 3 23 0
2 3 43 0
6 3 68 0
1 3 116 0
7 3 118 0
7 4 -111 0
4 4 -82 0
3 4 -79 0
8 4 -73 0
2 4 35 0
6 4 65 0
10 4 110 0
5 5 -32 0
4 5 -11 0
6 5 14 0
7 5 61 0
10 5 71 0
3 5 76 0
5 5 90 0
5 6 -111 0
2 6 -80 0
5 6 -61 0
6 6 -58 0
6 6 -18 0
5 6 -9 0
6 6 8 0
7 6 9 0
3 6 23 0
5 7 -77 0
5 7 -66 0
9 7 -55 0
4 7 -51 0
6 7 -11 0
5 7 27 0
4 7 31 0
2 7 41 0
3 7 57 0
6 7 85 0
4 7 102 0
10 8 -110 0
8 8 -103 0
9 8 -85 0
10 8 -73 0
3 8 -66 0
3 8 -36 0
6 8 -32 0
9 8 -14 0
3 8 34 0
8 8 41 0
4 8 58 0
7 8 69 0
9 8 71 0
8 8 75 0
3 8 102 0
5 9 -114 0
4 9 -113 0
8 9 -100 0
2 9 -95 0
5 9 -74 0
2 9 -49 0
6 9 -45 0
4 9 -43 0
5 9 -11 0
2 9 19 0
8 9 91 0
8 10 -92 0
3 10 -75 0
10 10 -20 0
4 10 33 0
7 10 45 0
10 10 56 0
2 10 62 0
6 10 78 0
9 10 86 0
4 10 91 0
8 10 107 0
5 11 -94 0
3 11 -62 0
2 11 -53 0
4 11 -13 0
6 11 36 0
8 11 102 0
3 11 111 0
4 11 112 0
10 12 -117 0
7 12 -93 0
7 12 -49 0
8 12 -44 0
8 12 38 0
2 12 76 0
9 12 83 0
4 12 85 0
5 12 108 0
4 13 -112 0
5 13 -80 0
3 13 -74 0
2 13 -61 0
8 13 -48 0
3 13 -24 0
5 13 62 0
5 13 85 0
3 13 98 0
6 13 99 0
10 13 109 0
2 13 112 0
9 14 -101 0
8 14 -34 0
6 14 -20 0
2 14 54 0
9 14 75 0
9 15 -119 0
7 15 -60 0
6 15 -57 0
2 15 24 0
10 15 37 0
6 15 47 0
8 15 48 0
6 15 54 0
4 15 70 0
6 15 76 0
7 15 79 0
4 15 102 0
10 16 -117 0
1 16 -103 0
7 16 -92 0
5 16 -26 0
3 16 29 0
8 16 72 0
3 16 112 0
5 17 -91 0
3 17 -89 0
7 17 -61 0
7 17 -54 0
8 17 -48 0
7 17 37 0
8 17 60 0
7 17 73 0
5 17 76 0
4 17 96 0
8 17 115 0
3 18 -115 0
3 18 -89 0
5 18 -80 0
9 18 -62 0
4 18 -39 0
4 18 -33 0
5 18 -19 0
2 18 21 0
9 18 33 0
9 18 59 0
7 18 61 0
6 18 76 0
2 18 103 0
7 19 -109 0
7 19 -75 0
8 19 -69 0
2 19 -50 0
9 19 -41 0
6 19 -24 0
5 19 45 0
4 19 59 0
8 20 -115 0
1 20 -107 0
1 20 -65 0
6 20 -59 0
7 20 -42 0
8 20 -33 0
3 20 25 0
1 20 27 0
2 20 55 0
1 20 56 0
4 20 85 0
5 21 -115 0
5 21 -93 0
3 21 -91 0
8 21 -80 0
8 21 -37 0
7 21 47 0
9 21 49 0
8 21 73 0
6 22 -110 0
6 22 -35 0
4 22 -27 0
7 22 -24 0
4 22 30 0
10 22 44 0
5 22 51 0
5 22 65 0
9 22 77 0
1 23 -118 0
9 23 -115 0
3 23 -39 0
8 23 -34 0
9 23 -32 0
3 23 30 0
4 23 38 0
6 23 59 0
1 23 71 0
6 23 90 0
6 23 96 0
2 23 105 0
6 23 110 0
9 23 119 0
6 24 -119 0
10 24 -106 0
2 24 -93 0
4 24 -80 0
8 24 -66 0
8 24 -25 0
3 24 36 0
6 24 58 0
4 24 60 0
8 24 92 0
9 24 97 0
2 24 101 0
2 24 117 0
8 25 -113 0
6 25 -112 0
6 25 -97 0
7 25 -73 0
6 25 -68 0
5 25 -63 0
9 25 -54 0
4 25 -42 0
4 25 41 0
2 25 80 0
6 25 98 0
9 25 115 0
2 26 -99 0
2 26 -77 0
6 26 -53 0
3 26 -49 0
6 26 46 0
5 26 70 0
8 26 82 0
6 27 -110 0
6 27 -98 0
2 27 -36 0
4 27 48 0
4 27 52 0
4 27 63 0
9 27 77 0
8 27 83 0
2 27 89 0
8 28 -105 0
8 28 -103 0
3 28 29 0
6 28 100 0
4 28 119 0
8 29 -52 0
2 29 -48 0
9 29 -47 0
3 29 30 0
10 29 35 0
3 29 95 0
7 29 107 0
2 30 -72 0
8 30 -56 0
6 30 -54 0
3 30 34 0
8 30 61 0
1 30 71 0
5 30 74 0
5 30 77 0
5 30 83 0
3 30 85 0
10 30 86 0
1 31 -113 0
4 31 -110 0
4 31 -64 0
5 31 -49 0
7 31 -37 0
3 31 32 0
3 31 104 0
8 31 112 0
10 32 -116 0
1 32 -106 0
2 32 -102 0
5 32 -85 0
4 32 -73 0
9 32 46 0
7 32 58 0
3 32 59 0
2 32 75 0
6 32 87 0
5 33 -110 0
8 33 -95 0
7 33 -77 0
2 33 -69 0
4 33 34 0
9 34 -111 0
10 34 -98 0
4 34 -82 0
4 34 -72 0
5 34 -68 0
9 34 -57 0
6 34 -53 0
4 34 -52 0
9 34 50 0
9 34 79 0
8 34 106 0
4 35 -90 0
7 35 -86 0
10 35 -80 0
6 35 -43 0
5 35 59 0
10 35 60 0
6 35 61 0
6 35 67 0
5 35 84 0
9 35 116 0
5 36 -115 0
1 36 -95 0
2 36 -85 0
6 36 -74 0
7 36 -72 0
6 36 -59 0
4 36 39 0
4 36 116 0
7 37 -87 0
7 37 -67 0
3 37 -60 0
7 37 103 0
10 38 -96 0
6 38 -68 0
2 38 -48 0
8 38 47 0
2 38 70 0
5 38 86 0
7 38 87 0
1 38 99 0
3 39 -120 0
1 39 -100 0
7 39 -93 0
3 39 -76 0
6 39 41 0
2 39 65 0
2 39 87 0
1 39 91 0
7 39 112 0
6 39 119 0
9 40 -119 0
1 40 -95 0
7 40 -54 0
1 40 53 0
6 40 58 0
3 41 -107 0
6 41 -71 0
9 41 -52 0
7 41 73 0
3 41 92 0
6 41 96 0
8 41 119 0
9 42 -109 0
6 42 -66 0
4 42 -49 0
1 42 91 0
4 42 110 0
5 42 111 0
5 43 -110 0
1 43 -109 0
5 43 -107 0
7 43 -97 0
2 43 -59 0
2 43 -54 0
9 43 -47 0
6 43 58 0
3 43 61 0
1 43 62 0
7 43 82 0
9 43 117 0
6 44 -87 0
6 44 57 0
9 45 -105 0
3 45 -96 0
6 45 -93 0
5 45 -67 0
5 45 68 0
2 45 76 0
4 45 77 0
2 46 -71 0
5 46 -55 0
9 46 65 0
9 46 89 0
4 47 -120 0
4 47 -90 0
3 47 -89 0
4 47 -85 0
7 47 -78 0
7 47 -74 0
9 47 51 0
8 47 53 0
2 47 56 0
6 47 60 0
8 47 89 0
3 47 103 0
4 48 -118 0
4 48 -68 0
5 48 62 0
4 48 94 0
1 48 118 0
4 48 119 0
10 49 -92 0
6 49 -84 0
4 49 -71 0
2 49 76 0
2 49 89 0
8 49 113 0
7 50 -66 0
3 50 -60 0
2 50 -53 0
7 50 64 0
7 50 67 0
1 50 73 0
6 51 -108 0
1 51 -99 0
4 51 -59 0
9 51 78 0
4 51 81 0
2 51 111 0
6 51 115 0
3 52 -118 0
9 52 -106 0
7 52 -96 0
8 52 -84 0
7 52 -70 0
9 52 59 0
2 52 66 0
1 53 -119 0
4 53 -111 0
5 53 -86 0
1 53 72 0
8 53 73 0
5 53 79 0
6 53 85 0
1 53 86 0
6 53 116 0
7 54 -96 0
8 54 73 0
3 54 75 0
10 54 88 0
9 54 93 0
9 55 -111 0
7 55 -88 0
9 55 -87 0
5 55 -77 0
7 55 -59 0
4 55 57 0
4 55 64 0
2 55 103 0
5 55 114 0
8 55 116 0
4 55 117 0
3 56 -117 0
5 56 -72 0
1 56 -66 0
9 56 -62 0
4 56 69 0
2 56 80 0
9 56 103 0
7 56 119 0
6 57 -71 0
9 57 -68 0
4 57 93 0
1 58 -90 0
5 58 -87 0
4 58 -81 0
6 58 62 0
3 58 64 0
2 58 81 0
8 58 83 0
3 58 84 0
1 58 94 0
7 59 -88 0
8 60 -102 0
10 60 76 0
2 60 96 0
6 60 103 0
3 61 -90 0
5 61 97 0
6 61 104 0
7 62 -103 0
4 62 -68 0
9 62 71 0
9 62 109 0
8 63 -107 0
9 63 -106 0
7 63 -104 0
1 63 96 0
10 63 114 0
6 64 -97 0
7 64 -82 0
6 64 -72 0
5 64 67 0
2 64 82 0
6 64 90 0
10 64 93 0
5 64 97 0
2 64 107 0
2 65 -113 0
6 65 82 0
9 65 120 0
4 66 -118 0
7 66 -108 0
6 66 78 0
2 66 85 0
7 66 108 0
7 67 -104 0
7 67 -90 0
9 67 -76 0
2 67 86 0
3 67 95 0
6 67 99 0
5 67 108 0
2 68 -110 0
4 68 -107 0
3 68 -89 0
9 68 76 0
2 68 95 0
3 68 96 0
9 68 98 0
7 68 113 0
9 68 114 0
5 69 -95 0
2 69 -85 0
10 69 89 0
10 69 120 0
2 70 -109 0
5 70 -74 0
2 70 87 0
3 71 -118 0
1 71 -109 0
10 71 -82 0
6 71 82 0
7 71 94 0
5 71 111 0
7 71 120 0
4 72 -81 0
3 72 75 0
4 72 117 0
3 73 -76 0
4 73 -74 0
6 73 84 0
7 73 89 0
8 73 108 0
7 73 110 0
2 74 -120 0
10 74 -99 0
6 74 -86 0
3 74 77 0
3 74 90 0
5 74 108 0
9 74 119 0
2 75 -114 0
8 75 -87 0
1 76 -81 0
1 76 -77 0
8 76 86 0
2 76 89 0
5 76 109 0
8 76 116 0
4 77 -89 0
6 77 81 0
8 77 119 0
9 78 -109 0
3 78 -104 0
3 79 -120 0
6 79 101 0
6 79 104 0
5 79 108 0
9 79 110 0
7 80 -120 0
8 80 -100 0
5 80 -90 0
5 81 -115 0
6 81 -105 0
2 81 88 0
5 82 -113 0
6 82 -105 0
7 82 -96 0
7 82 -87 0
7 82 -86 0
1 83 -92 0
6 83 106 0
8 84 88 0
8 84 89 0
6 84 99 0
9 85 -119 0
6 85 -114 0
7 85 -107 0
4 85 -102 0
5 85 -101 0
1 85 -95 0
9 85 106 0
3 86 -106 0
9 87 114 0
1 87 116 0
5 88 -107 0
6 88 -99 0
6 89 111 0
9 90 95 0
5 90 104 0
4 91 -115 0
8 91 -106 0
9 91 -101 0
7 92 -110 0
4 92 104 0
1 92 106 0
3 92 108 0
9 92 113 0
7 93 97 0
9 93 106 0
6 94 -114 0
7 94 114 0
5 97 -120 0
4 97 -111 0
5 98 -111 0
10 98 -103 0
3 98 112 0
1 99 -118 0
7 99 109 0
5 99 117 0
5 100 -108 0
7 101 -112 0
4 102 -116 0
7 102 -103 0
6 102 115 0
4 103 116 0
2 104 -112 0
2 104 119 0
10 105 -108 0
1 108 112 0
6 110 111 0
3 110 118 0
8 112 114 0
5 114 117 0
9 114 118 0
2 115 116 0
5 115 117 0
2 116 119 0
